NAME: test1962
TYPE: TSP
DIMENSION: 11
EDGE_WEIGHT_TYPE: EUC_2D
NODE_COORD_SECTION
1 12.23924330604883 68.56177391446447
2 91.16375916270076 5.465983867794478
3 23.95665791802508 74.8319874498391
4 54.47324916490706 50.822042952750955
5 8.45937236133537 8.797455523602359
6 18.937060155035624 99.79148332142763
7 31.921282008924933 74.49402865485746
8 45.9872822445652 39.428642812862456
9 77.8109563383046 28.939093749251132
10 71.3675632766395 71.75461379156249
11 12.528723161304766 82.93742746946705
EOF
